(benchmark gametime
:status unknown
:logic QF_AUFBV
:extrafuns ((gtINDEX88  BitVec[32]))
:extrafuns ((gtFIELD__bitsForTID0__gtAGG____anonstruct_D_Work_4  Array[32:32]))
:extrafuns ((gtINDEX89  BitVec[32]))
:extrafuns ((gtAGG__rtDWork  BitVec[32]))
:extrafuns ((gtINDEX86  BitVec[32]))
:extrafuns ((gtINDEX87  BitVec[32]))
:extrafuns ((gtINDEX84  BitVec[32]))
:extrafuns ((gtINDEX85  BitVec[32]))
:extrafuns ((gtINDEX82  BitVec[32]))
:extrafuns ((gtINDEX83  BitVec[32]))
:extrafuns ((gtINDEX81  BitVec[32]))
:extrafuns ((gtINDEX80  BitVec[32]))
:extrafuns ((gtINDEX79  BitVec[32]))
:extrafuns ((gtINDEX78  BitVec[32]))
:extrafuns ((gtINDEX76  BitVec[32]))
:extrafuns ((gtINDEX77  BitVec[32]))
:extrafuns ((gtINDEX74  BitVec[32]))
:extrafuns ((gtINDEX75  BitVec[32]))
:extrafuns ((gtINDEX72  BitVec[32]))
:extrafuns ((gtINDEX73  BitVec[32]))
:extrafuns ((gtINDEX71  BitVec[32]))
:extrafuns ((gtINDEX69  BitVec[32]))
:extrafuns ((gtINDEX70  BitVec[32]))
:extrafuns ((gtINDEX67  BitVec[32]))
:extrafuns ((gtINDEX68  BitVec[32]))
:extrafuns ((gtINDEX65  BitVec[32]))
:extrafuns ((gtINDEX66  BitVec[32]))
:extrafuns ((gtINDEX63  BitVec[32]))
:extrafuns ((gtINDEX64  BitVec[32]))
:extrafuns ((gtINDEX62  BitVec[32]))
:extrafuns ((gtINDEX60  BitVec[32]))
:extrafuns ((gtINDEX61  BitVec[32]))
:extrafuns ((gtINDEX58  BitVec[32]))
:extrafuns ((gtINDEX59  BitVec[32]))
:extrafuns ((gtINDEX56  BitVec[32]))
:extrafuns ((gtINDEX57  BitVec[32]))
:extrafuns ((gtINDEX54  BitVec[32]))
:extrafuns ((gtINDEX55  BitVec[32]))
:extrafuns ((gtINDEX52  BitVec[32]))
:extrafuns ((gtINDEX53  BitVec[32]))
:extrafuns ((gtINDEX50  BitVec[32]))
:extrafuns ((gtINDEX51  BitVec[32]))
:extrafuns ((gtINDEX49  BitVec[32]))
:extrafuns ((gtINDEX48  BitVec[32]))
:extrafuns ((gtINDEX46  BitVec[32]))
:extrafuns ((gtINDEX47  BitVec[32]))
:extrafuns ((gtINDEX44  BitVec[32]))
:extrafuns ((gtINDEX45  BitVec[32]))
:extrafuns ((gtINDEX42  BitVec[32]))
:extrafuns ((gtINDEX43  BitVec[32]))
:extrafuns ((gtINDEX41  BitVec[32]))
:extrafuns ((gtINDEX40  BitVec[32]))
:extrafuns ((gtINDEX39  BitVec[32]))
:extrafuns ((gtINDEX38  BitVec[32]))
:extrafuns ((gtINDEX37  BitVec[32]))
:extrafuns ((gtINDEX36  BitVec[32]))
:extrafuns ((gtINDEX34  BitVec[32]))
:extrafuns ((gtINDEX35  BitVec[32]))
:extrafuns ((gtINDEX32  BitVec[32]))
:extrafuns ((gtINDEX33  BitVec[32]))
:extrafuns ((gtINDEX30  BitVec[32]))
:extrafuns ((gtINDEX31  BitVec[32]))
:extrafuns ((gtINDEX29  BitVec[32]))
:extrafuns ((gtINDEX27  BitVec[32]))
:extrafuns ((gtINDEX28  BitVec[32]))
:extrafuns ((gtINDEX25  BitVec[32]))
:extrafuns ((gtINDEX26  BitVec[32]))
:extrafuns ((gtINDEX23  BitVec[32]))
:extrafuns ((gtINDEX24  BitVec[32]))
:extrafuns ((gtINDEX21  BitVec[32]))
:extrafuns ((gtINDEX22  BitVec[32]))
:extrafuns ((gtINDEX20  BitVec[32]))
:extrafuns ((gtINDEX18  BitVec[32]))
:extrafuns ((gtINDEX19  BitVec[32]))
:extrafuns ((gtINDEX16  BitVec[32]))
:extrafuns ((gtINDEX17  BitVec[32]))
:extrafuns ((gtINDEX14  BitVec[32]))
:extrafuns ((gtINDEX15  BitVec[32]))
:extrafuns ((gtINDEX12  BitVec[32]))
:extrafuns ((gtINDEX13  BitVec[32]))
:extrafuns ((gtINDEX10  BitVec[32]))
:extrafuns ((gtINDEX11  BitVec[32]))
:extrafuns ((gtINDEX8  BitVec[32]))
:extrafuns ((gtINDEX9  BitVec[32]))
:extrafuns ((gtINDEX7  BitVec[32]))
:extrafuns ((gtINDEX6  BitVec[32]))
:extrafuns ((gtINDEX4  BitVec[32]))
:extrafuns ((gtINDEX5  BitVec[32]))
:extrafuns ((gtINDEX2  BitVec[32]))
:extrafuns ((gtINDEX3  BitVec[32]))
:extrafuns ((gtINDEX0  BitVec[32]))
:extrafuns ((gtINDEX1  BitVec[32]))
:extrafuns ((gtFIELD__is_Eng__gtAGG____anonstruct_bitsForTID0_5_1_  Array[32:1]))
:extrafuns ((gtFIELD__is_Eng__gtAGG____anonstruct_bitsForTID0_5_2_  Array[32:1]))
:extrafuns ((sf_previousEvent_1_  BitVec[32]))
:extrafuns ((sfEvent__2_  BitVec[32]))
:extrafuns ((gtFIELD__is_Eng__gtAGG____anonstruct_bitsForTID0_5  Array[32:1]))
:extrafuns ((gtFIELD__sent__gtAGG____anonstruct_D_Work_4_1_  Array[32:32]))
:extrafuns ((gtFIELD__sent__gtAGG____anonstruct_D_Work_4_2_  Array[32:32]))
:extrafuns ((gtFIELD__is_active_Eng__gtAGG____anonstruct_bitsForTID0_5  Array[32:1]))
:extrafuns ((gtFIELD__is_active_PURI__gtAGG____anonstruct_bitsForTID0_5  Array[32:1]))
:extrafuns ((gtFIELD__is_PVRP__gtAGG____anonstruct_bitsForTID0_5  Array[32:2]))
:extrafuns ((gtFIELD__is_active_PVRP__gtAGG____anonstruct_bitsForTID0_5  Array[32:1]))
:extrafuns ((gtFIELD__is_PPVARP__gtAGG____anonstruct_bitsForTID0_5  Array[32:2]))
:extrafuns ((gtFIELD__is_active_PPVARP__gtAGG____anonstruct_bitsForTID0_5  Array[32:1]))
:extrafuns ((sfEvent__1_  BitVec[32]))
:extrafuns ((gtFIELD__is_PLRI__gtAGG____anonstruct_bitsForTID0_5  Array[32:2]))
:extrafuns ((gtFIELD__is_active_PLRI__gtAGG____anonstruct_bitsForTID0_5  Array[32:1]))
:extrafuns ((gtFIELD__is_PAVI__gtAGG____anonstruct_bitsForTID0_5  Array[32:3]))
:extrafuns ((gtFIELD__is_active_PAVI__gtAGG____anonstruct_bitsForTID0_5  Array[32:1]))
:extrafuns ((sfEvent_  BitVec[32]))
:extrafuns ((gtFIELD__sent__gtAGG____anonstruct_D_Work_4  Array[32:32]))
:extrapreds ((constraint154 ))
:extrapreds ((constraint153 ))
:extrapreds ((constraint152 ))
:extrapreds ((constraint151 ))
:extrapreds ((constraint150 ))
:extrapreds ((constraint149 ))
:extrapreds ((constraint148 ))
:extrapreds ((constraint147 ))
:extrapreds ((constraint146 ))
:extrapreds ((constraint145 ))
:extrapreds ((constraint144 ))
:extrapreds ((constraint143 ))
:extrapreds ((constraint142 ))
:extrapreds ((constraint141 ))
:extrapreds ((constraint140 ))
:extrapreds ((constraint139 ))
:extrapreds ((constraint138 ))
:extrapreds ((constraint137 ))
:extrapreds ((constraint136 ))
:extrapreds ((constraint135 ))
:extrapreds ((constraint134 ))
:extrapreds ((constraint133 ))
:extrapreds ((constraint132 ))
:extrapreds ((constraint131 ))
:extrapreds ((constraint130 ))
:extrapreds ((constraint129 ))
:extrapreds ((constraint128 ))
:extrapreds ((constraint127 ))
:extrapreds ((constraint126 ))
:extrapreds ((constraint125 ))
:extrapreds ((constraint124 ))
:extrapreds ((constraint123 ))
:extrapreds ((constraint122 ))
:extrapreds ((constraint121 ))
:extrapreds ((constraint120 ))
:extrapreds ((constraint119 ))
:extrapreds ((constraint118 ))
:extrapreds ((constraint117 ))
:extrapreds ((constraint116 ))
:extrapreds ((constraint115 ))
:extrapreds ((constraint114 ))
:extrapreds ((constraint113 ))
:extrapreds ((constraint112 ))
:extrapreds ((constraint111 ))
:extrapreds ((constraint110 ))
:extrapreds ((constraint109 ))
:extrapreds ((constraint108 ))
:extrapreds ((constraint107 ))
:extrapreds ((constraint106 ))
:extrapreds ((constraint105 ))
:extrapreds ((constraint104 ))
:extrapreds ((constraint103 ))
:extrapreds ((constraint102 ))
:extrapreds ((constraint101 ))
:extrapreds ((constraint100 ))
:extrapreds ((constraint99 ))
:extrapreds ((constraint98 ))
:extrapreds ((constraint97 ))
:extrapreds ((constraint96 ))
:extrapreds ((constraint95 ))
:extrapreds ((constraint94 ))
:extrapreds ((constraint93 ))
:extrapreds ((constraint92 ))
:extrapreds ((constraint91 ))
:extrapreds ((constraint90 ))
:extrapreds ((constraint89 ))
:extrapreds ((constraint88 ))
:extrapreds ((constraint87 ))
:extrapreds ((constraint86 ))
:extrapreds ((constraint85 ))
:extrapreds ((constraint84 ))
:extrapreds ((constraint83 ))
:extrapreds ((constraint82 ))
:extrapreds ((constraint81 ))
:extrapreds ((constraint80 ))
:extrapreds ((constraint79 ))
:extrapreds ((constraint78 ))
:extrapreds ((constraint77 ))
:extrapreds ((constraint76 ))
:extrapreds ((constraint75 ))
:extrapreds ((constraint74 ))
:extrapreds ((constraint73 ))
:extrapreds ((constraint72 ))
:extrapreds ((constraint71 ))
:extrapreds ((constraint70 ))
:extrapreds ((constraint69 ))
:extrapreds ((constraint68 ))
:extrapreds ((constraint67 ))
:extrapreds ((constraint66 ))
:extrapreds ((constraint65 ))
:extrapreds ((constraint64 ))
:extrapreds ((constraint63 ))
:extrapreds ((constraint62 ))
:extrapreds ((constraint61 ))
:extrapreds ((constraint60 ))
:extrapreds ((constraint59 ))
:extrapreds ((constraint58 ))
:extrapreds ((constraint57 ))
:extrapreds ((constraint56 ))
:extrapreds ((constraint55 ))
:extrapreds ((constraint54 ))
:extrapreds ((constraint53 ))
:extrapreds ((constraint52 ))
:extrapreds ((constraint51 ))
:extrapreds ((constraint50 ))
:extrapreds ((constraint49 ))
:extrapreds ((constraint48 ))
:extrapreds ((constraint47 ))
:extrapreds ((constraint46 ))
:extrapreds ((constraint45 ))
:extrapreds ((constraint44 ))
:extrapreds ((constraint43 ))
:extrapreds ((constraint42 ))
:extrapreds ((constraint41 ))
:extrapreds ((constraint40 ))
:extrapreds ((constraint39 ))
:extrapreds ((constraint38 ))
:extrapreds ((constraint37 ))
:extrapreds ((constraint36 ))
:extrapreds ((constraint35 ))
:extrapreds ((constraint34 ))
:extrapreds ((constraint33 ))
:extrapreds ((constraint32 ))
:extrapreds ((constraint31 ))
:extrapreds ((constraint30 ))
:extrapreds ((constraint29 ))
:extrapreds ((constraint28 ))
:extrapreds ((constraint27 ))
:extrapreds ((constraint26 ))
:extrapreds ((constraint25 ))
:extrapreds ((constraint24 ))
:extrapreds ((constraint23 ))
:extrapreds ((constraint22 ))
:extrapreds ((constraint21 ))
:extrapreds ((constraint20 ))
:extrapreds ((constraint19 ))
:extrapreds ((constraint18 ))
:extrapreds ((constraint17 ))
:extrapreds ((constraint16 ))
:extrapreds ((constraint15 ))
:extrapreds ((constraint14 ))
:extrapreds ((constraint13 ))
:extrapreds ((constraint12 ))
:extrapreds ((constraint11 ))
:extrapreds ((constraint10 ))
:extrapreds ((constraint9 ))
:extrapreds ((constraint8 ))
:extrapreds ((constraint7 ))
:extrapreds ((constraint6 ))
:extrapreds ((constraint5 ))
:extrapreds ((constraint4 ))
:extrapreds ((constraint3 ))
:extrapreds ((constraint2 ))
:extrapreds ((constraint1 ))
:extrapreds ((constraint0 ))
:formula
(flet ($x777 (and constraint0 constraint1 constraint2 constraint3 constraint4 constraint5 constraint6 constraint7 constraint8 constraint9 constraint10 constraint11 constraint12 constraint13 constraint14 constraint15 constraint16 constraint17 constraint18 constraint19 constraint20 constraint21 constraint22 constraint23 constraint24 constraint25 constraint26 constraint27 constraint28 constraint29 constraint30 constraint31 constraint32 constraint33 constraint34 constraint35 constraint36 constraint37 constraint38 constraint39 constraint40 constraint41 constraint42 constraint43 constraint44 constraint45 constraint46 constraint47 constraint48 constraint49 constraint50 constraint51 constraint52 constraint53 constraint54 constraint55 constraint56 constraint57 constraint58 constraint59 constraint60 constraint61 constraint62 constraint63 constraint64 constraint65 constraint66 constraint67 constraint68 constraint69 constraint70 constraint71 constraint72 constraint73 constraint74 constraint75 constraint76 constraint77 constraint78 constraint79 constraint80 constraint81 constraint82 constraint83 constraint84 constraint85 constraint86 constraint87 constraint88 constraint89 constraint90 constraint91 constraint92 constraint93 constraint94 constraint95 constraint96 constraint97 constraint98 constraint99 constraint100 constraint101 constraint102 constraint103 constraint104 constraint105 constraint106 constraint107 constraint108 constraint109 constraint110 constraint111 constraint112 constraint113 constraint114 constraint115 constraint116 constraint117 constraint118 constraint119 constraint120 constraint121 constraint122 constraint123 constraint124 constraint125 constraint126 constraint127 constraint128 constraint129 constraint130 constraint131 constraint132 constraint133 constraint134 constraint135 constraint136 constraint137 constraint138 constraint139 constraint140 constraint141 constraint142 constraint143 constraint144 constraint145 constraint146 constraint147 constraint148 constraint149 constraint150 constraint151 constraint152 constraint153 constraint154))
(flet ($x465 (= gtINDEX89 (select gtFIELD__bitsForTID0__gtAGG____anonstruct_D_Work_4 gtINDEX88)))
(flet ($x461 (= gtINDEX87 (select gtFIELD__bitsForTID0__gtAGG____anonstruct_D_Work_4 gtINDEX86)))
(flet ($x457 (= gtINDEX85 (select gtFIELD__bitsForTID0__gtAGG____anonstruct_D_Work_4 gtINDEX84)))
(flet ($x453 (= gtINDEX83 (select gtFIELD__bitsForTID0__gtAGG____anonstruct_D_Work_4 gtINDEX82)))
(flet ($x445 (= gtINDEX77 (select gtFIELD__bitsForTID0__gtAGG____anonstruct_D_Work_4 gtINDEX76)))
(flet ($x441 (= gtINDEX75 (select gtFIELD__bitsForTID0__gtAGG____anonstruct_D_Work_4 gtINDEX74)))
(flet ($x437 (= gtINDEX73 (select gtFIELD__bitsForTID0__gtAGG____anonstruct_D_Work_4 gtINDEX72)))
(flet ($x432 (= gtINDEX70 (select gtFIELD__bitsForTID0__gtAGG____anonstruct_D_Work_4 gtINDEX69)))
(flet ($x428 (= gtINDEX68 (select gtFIELD__bitsForTID0__gtAGG____anonstruct_D_Work_4 gtINDEX67)))
(flet ($x424 (= gtINDEX66 (select gtFIELD__bitsForTID0__gtAGG____anonstruct_D_Work_4 gtINDEX65)))
(flet ($x420 (= gtINDEX64 (select gtFIELD__bitsForTID0__gtAGG____anonstruct_D_Work_4 gtINDEX63)))
(flet ($x415 (= gtINDEX61 (select gtFIELD__bitsForTID0__gtAGG____anonstruct_D_Work_4 gtINDEX60)))
(flet ($x411 (= gtINDEX59 (select gtFIELD__bitsForTID0__gtAGG____anonstruct_D_Work_4 gtINDEX58)))
(flet ($x407 (= gtINDEX57 (select gtFIELD__bitsForTID0__gtAGG____anonstruct_D_Work_4 gtINDEX56)))
(flet ($x403 (= gtINDEX55 (select gtFIELD__bitsForTID0__gtAGG____anonstruct_D_Work_4 gtINDEX54)))
(flet ($x399 (= gtINDEX53 (select gtFIELD__bitsForTID0__gtAGG____anonstruct_D_Work_4 gtINDEX52)))
(flet ($x395 (= gtINDEX51 (select gtFIELD__bitsForTID0__gtAGG____anonstruct_D_Work_4 gtINDEX50)))
(flet ($x389 (= gtINDEX47 (select gtFIELD__bitsForTID0__gtAGG____anonstruct_D_Work_4 gtINDEX46)))
(flet ($x385 (= gtINDEX45 (select gtFIELD__bitsForTID0__gtAGG____anonstruct_D_Work_4 gtINDEX44)))
(flet ($x381 (= gtINDEX43 (select gtFIELD__bitsForTID0__gtAGG____anonstruct_D_Work_4 gtINDEX42)))
(flet ($x371 (= gtINDEX35 (select gtFIELD__bitsForTID0__gtAGG____anonstruct_D_Work_4 gtINDEX34)))
(flet ($x367 (= gtINDEX33 (select gtFIELD__bitsForTID0__gtAGG____anonstruct_D_Work_4 gtINDEX32)))
(flet ($x363 (= gtINDEX31 (select gtFIELD__bitsForTID0__gtAGG____anonstruct_D_Work_4 gtINDEX30)))
(flet ($x358 (= gtINDEX28 (select gtFIELD__bitsForTID0__gtAGG____anonstruct_D_Work_4 gtINDEX27)))
(flet ($x354 (= gtINDEX26 (select gtFIELD__bitsForTID0__gtAGG____anonstruct_D_Work_4 gtINDEX25)))
(flet ($x350 (= gtINDEX24 (select gtFIELD__bitsForTID0__gtAGG____anonstruct_D_Work_4 gtINDEX23)))
(flet ($x346 (= gtINDEX22 (select gtFIELD__bitsForTID0__gtAGG____anonstruct_D_Work_4 gtINDEX21)))
(flet ($x341 (= gtINDEX19 (select gtFIELD__bitsForTID0__gtAGG____anonstruct_D_Work_4 gtINDEX18)))
(flet ($x337 (= gtINDEX17 (select gtFIELD__bitsForTID0__gtAGG____anonstruct_D_Work_4 gtINDEX16)))
(flet ($x333 (= gtINDEX15 (select gtFIELD__bitsForTID0__gtAGG____anonstruct_D_Work_4 gtINDEX14)))
(flet ($x329 (= gtINDEX13 (select gtFIELD__bitsForTID0__gtAGG____anonstruct_D_Work_4 gtINDEX12)))
(flet ($x325 (= gtINDEX11 (select gtFIELD__bitsForTID0__gtAGG____anonstruct_D_Work_4 gtINDEX10)))
(flet ($x321 (= gtINDEX9 (select gtFIELD__bitsForTID0__gtAGG____anonstruct_D_Work_4 gtINDEX8)))
(flet ($x315 (= gtINDEX5 (select gtFIELD__bitsForTID0__gtAGG____anonstruct_D_Work_4 gtINDEX4)))
(flet ($x311 (= gtINDEX3 (select gtFIELD__bitsForTID0__gtAGG____anonstruct_D_Work_4 gtINDEX2)))
(flet ($x307 (= gtINDEX1 (select gtFIELD__bitsForTID0__gtAGG____anonstruct_D_Work_4 gtINDEX0)))
(let (?x291 (extract[0:0] bv1[32]))
(let (?x301 (store gtFIELD__is_Eng__gtAGG____anonstruct_bitsForTID0_5_1_ gtINDEX89 ?x291))
(flet ($x595 (iff constraint64 (= gtFIELD__is_Eng__gtAGG____anonstruct_bitsForTID0_5_2_ ?x301)))
(let (?x297 (select gtFIELD__is_Eng__gtAGG____anonstruct_bitsForTID0_5_1_ gtINDEX87))
(let (?x292 (store gtFIELD__is_Eng__gtAGG____anonstruct_bitsForTID0_5 gtINDEX85 ?x291))
(flet ($x589 (iff constraint61 (= gtFIELD__is_Eng__gtAGG____anonstruct_bitsForTID0_5_1_ ?x292)))
(let (?x288 (zero_extend[31] (select gtFIELD__is_Eng__gtAGG____anonstruct_bitsForTID0_5 gtINDEX83)))
(let (?x284 (store gtFIELD__sent__gtAGG____anonstruct_D_Work_4_1_ gtINDEX81 bv0[32]))
(flet ($x585 (iff constraint59 (= gtFIELD__sent__gtAGG____anonstruct_D_Work_4_2_ ?x284)))
(let (?x157 (bvmul bv4294967295[32] bv1[32]))
(flet ($x282 (= (select gtFIELD__sent__gtAGG____anonstruct_D_Work_4_1_ gtINDEX80) ?x157))
(flet ($x278 (= (select gtFIELD__sent__gtAGG____anonstruct_D_Work_4_1_ gtINDEX79) bv9[32]))
(flet ($x274 (= (select gtFIELD__sent__gtAGG____anonstruct_D_Work_4_1_ gtINDEX78) bv4[32]))
(let (?x270 (zero_extend[31] (select gtFIELD__is_Eng__gtAGG____anonstruct_bitsForTID0_5 gtINDEX77)))
(let (?x264 (select gtFIELD__is_active_Eng__gtAGG____anonstruct_bitsForTID0_5 gtINDEX75))
(let (?x258 (select gtFIELD__is_active_PURI__gtAGG____anonstruct_bitsForTID0_5 gtINDEX73))
(flet ($x255 (= (select gtFIELD__sent__gtAGG____anonstruct_D_Work_4_1_ gtINDEX71) bv0[32]))
(let (?x250 (select gtFIELD__is_PVRP__gtAGG____anonstruct_bitsForTID0_5 gtINDEX70))
(let (?x245 (select gtFIELD__is_PVRP__gtAGG____anonstruct_bitsForTID0_5 gtINDEX68))
(let (?x240 (select gtFIELD__is_PVRP__gtAGG____anonstruct_bitsForTID0_5 gtINDEX66))
(let (?x235 (select gtFIELD__is_active_PVRP__gtAGG____anonstruct_bitsForTID0_5 gtINDEX64))
(flet ($x232 (= (select gtFIELD__sent__gtAGG____anonstruct_D_Work_4_1_ gtINDEX62) bv0[32]))
(let (?x227 (select gtFIELD__is_PPVARP__gtAGG____anonstruct_bitsForTID0_5 gtINDEX61))
(let (?x222 (select gtFIELD__is_PPVARP__gtAGG____anonstruct_bitsForTID0_5 gtINDEX59))
(let (?x217 (select gtFIELD__is_active_PPVARP__gtAGG____anonstruct_bitsForTID0_5 gtINDEX57))
(let (?x211 (select gtFIELD__is_PLRI__gtAGG____anonstruct_bitsForTID0_5 gtINDEX55))
(let (?x206 (select gtFIELD__is_PLRI__gtAGG____anonstruct_bitsForTID0_5 gtINDEX53))
(let (?x201 (select gtFIELD__is_active_PLRI__gtAGG____anonstruct_bitsForTID0_5 gtINDEX51))
(flet ($x196 (= (select gtFIELD__sent__gtAGG____anonstruct_D_Work_4_1_ gtINDEX49) bv0[32]))
(flet ($x192 (= (select gtFIELD__sent__gtAGG____anonstruct_D_Work_4_1_ gtINDEX48) bv0[32]))
(let (?x187 (select gtFIELD__is_PAVI__gtAGG____anonstruct_bitsForTID0_5 gtINDEX47))
(let (?x182 (select gtFIELD__is_PAVI__gtAGG____anonstruct_bitsForTID0_5 gtINDEX45))
(let (?x177 (select gtFIELD__is_active_PAVI__gtAGG____anonstruct_bitsForTID0_5 gtINDEX43))
(flet ($x169 (= gtFIELD__sent__gtAGG____anonstruct_D_Work_4_1_ (store gtFIELD__sent__gtAGG____anonstruct_D_Work_4 gtINDEX41 ?x157)))
(flet ($x166 (= (select gtFIELD__sent__gtAGG____anonstruct_D_Work_4 gtINDEX40) bv2[32]))
(flet ($x162 (= (select gtFIELD__sent__gtAGG____anonstruct_D_Work_4 gtINDEX39) bv1[32]))
(flet ($x158 (= (select gtFIELD__sent__gtAGG____anonstruct_D_Work_4 gtINDEX38) ?x157))
(flet ($x152 (= (select gtFIELD__sent__gtAGG____anonstruct_D_Work_4 gtINDEX37) bv9[32]))
(flet ($x147 (= (select gtFIELD__sent__gtAGG____anonstruct_D_Work_4 gtINDEX36) bv4[32]))
(let (?x143 (zero_extend[31] (select gtFIELD__is_Eng__gtAGG____anonstruct_bitsForTID0_5 gtINDEX35)))
(let (?x137 (select gtFIELD__is_active_Eng__gtAGG____anonstruct_bitsForTID0_5 gtINDEX33))
(let (?x131 (select gtFIELD__is_active_PURI__gtAGG____anonstruct_bitsForTID0_5 gtINDEX31))
(flet ($x128 (= (select gtFIELD__sent__gtAGG____anonstruct_D_Work_4 gtINDEX29) bv0[32]))
(let (?x122 (select gtFIELD__is_PVRP__gtAGG____anonstruct_bitsForTID0_5 gtINDEX28))
(let (?x117 (select gtFIELD__is_PVRP__gtAGG____anonstruct_bitsForTID0_5 gtINDEX26))
(let (?x112 (select gtFIELD__is_PVRP__gtAGG____anonstruct_bitsForTID0_5 gtINDEX24))
(let (?x107 (select gtFIELD__is_active_PVRP__gtAGG____anonstruct_bitsForTID0_5 gtINDEX22))
(flet ($x104 (= (select gtFIELD__sent__gtAGG____anonstruct_D_Work_4 gtINDEX20) bv0[32]))
(let (?x99 (select gtFIELD__is_PPVARP__gtAGG____anonstruct_bitsForTID0_5 gtINDEX19))
(let (?x94 (select gtFIELD__is_PPVARP__gtAGG____anonstruct_bitsForTID0_5 gtINDEX17))
(let (?x89 (select gtFIELD__is_active_PPVARP__gtAGG____anonstruct_bitsForTID0_5 gtINDEX15))
(let (?x82 (select gtFIELD__is_PLRI__gtAGG____anonstruct_bitsForTID0_5 gtINDEX13))
(let (?x77 (select gtFIELD__is_PLRI__gtAGG____anonstruct_bitsForTID0_5 gtINDEX11))
(let (?x72 (select gtFIELD__is_active_PLRI__gtAGG____anonstruct_bitsForTID0_5 gtINDEX9))
(flet ($x66 (= (select gtFIELD__sent__gtAGG____anonstruct_D_Work_4 gtINDEX7) bv0[32]))
(flet ($x62 (= (select gtFIELD__sent__gtAGG____anonstruct_D_Work_4 gtINDEX6) bv0[32]))
(let (?x57 (zero_extend[29] (select gtFIELD__is_PAVI__gtAGG____anonstruct_bitsForTID0_5 gtINDEX5)))
(let (?x51 (zero_extend[29] (select gtFIELD__is_PAVI__gtAGG____anonstruct_bitsForTID0_5 gtINDEX3)))
(let (?x44 (select gtFIELD__is_active_PAVI__gtAGG____anonstruct_bitsForTID0_5 gtINDEX1))
(flet ($x776 (and (iff constraint0 (not (= sfEvent_ bv8[32]))) (iff constraint1 (not (= (zero_extend[31] ?x44) bv0[32]))) (iff constraint2 (not (= ?x51 bv1[32]))) (iff constraint3 (= ?x57 bv2[32])) (iff constraint4 (not $x62)) (iff constraint5 (not $x66)) (iff constraint6 (not (= sfEvent_ bv5[32]))) (iff constraint7 (not (= (zero_extend[31] ?x72) bv0[32]))) (iff constraint8 (not (= (zero_extend[30] ?x77) bv1[32]))) (iff constraint9 (= (zero_extend[30] ?x82) bv2[32])) (iff constraint10 (not (= sfEvent_ bv4[32]))) (iff constraint11 (not (= sfEvent_ bv5[32]))) (iff constraint12 (not (= (zero_extend[31] ?x89) bv0[32]))) (iff constraint13 (not (= (zero_extend[30] ?x94) bv1[32]))) (iff constraint14 (= (zero_extend[30] ?x99) bv2[32])) (iff constraint15 (not $x104)) (iff constraint16 (not (= (zero_extend[31] ?x107) bv0[32]))) (iff constraint17 (not (= (zero_extend[30] ?x112) bv1[32]))) (iff constraint18 (not (= (zero_extend[30] ?x117) bv2[32]))) (iff constraint19 (= (zero_extend[30] ?x122) bv3[32])) (iff constraint20 (not $x128)) (iff constraint21 (not (not (= (zero_extend[31] ?x131) bv0[32])))) (iff constraint22 (not (= (zero_extend[31] ?x137) bv0[32]))) (iff constraint23 (= ?x143 bv1[32])) (iff constraint24 (not $x147)) (iff constraint25 (not $x152)) (iff constraint26 (not $x158)) (iff constraint27 (not $x162)) (iff constraint28 $x166) (iff constraint29 $x169) (iff constraint30 (= sf_previousEvent_1_ sfEvent_)) (iff constraint31 (= sfEvent__1_ bv3[32])) (iff constraint32 (not (= sfEvent__1_ bv8[32]))) (iff constraint33 (not (= (zero_extend[31] ?x177) bv0[32]))) (iff constraint34 (not (= (zero_extend[29] ?x182) bv1[32]))) (iff constraint35 (= (zero_extend[29] ?x187) bv2[32])) (iff constraint36 (not $x192)) (iff constraint37 (not $x196)) (iff constraint38 (not (= sfEvent__1_ bv5[32]))) (iff constraint39 (not (= (zero_extend[31] ?x201) bv0[32]))) (iff constraint40 (not (= (zero_extend[30] ?x206) bv1[32]))) (iff constraint41 (= (zero_extend[30] ?x211) bv2[32])) (iff constraint42 (not (= sfEvent__1_ bv4[32]))) (iff constraint43 (not (= sfEvent__1_ bv5[32]))) (iff constraint44 (not (= (zero_extend[31] ?x217) bv0[32]))) (iff constraint45 (not (= (zero_extend[30] ?x222) bv1[32]))) (iff constraint46 (= (zero_extend[30] ?x227) bv2[32])) (iff constraint47 (not $x232)) (iff constraint48 (not (= (zero_extend[31] ?x235) bv0[32]))) (iff constraint49 (not (= (zero_extend[30] ?x240) bv1[32]))) (iff constraint50 (not (= (zero_extend[30] ?x245) bv2[32]))) (iff constraint51 (= (zero_extend[30] ?x250) bv3[32])) (iff constraint52 (not $x255)) (iff constraint53 (not (not (= (zero_extend[31] ?x258) bv0[32])))) (iff constraint54 (not (= (zero_extend[31] ?x264) bv0[32]))) (iff constraint55 (= ?x270 bv1[32])) (iff constraint56 (not $x274)) (iff constraint57 (not $x278)) (iff constraint58 $x282) $x585 (iff constraint60 (= ?x288 bv1[32])) $x589 (iff constraint62 (= sfEvent__2_ sf_previousEvent_1_)) (iff constraint63 (= (zero_extend[31] ?x297) bv1[32])) $x595 (iff constraint65 (= gtINDEX0 gtAGG__rtDWork)) (iff constraint66 $x307) (iff constraint67 (= gtINDEX2 gtAGG__rtDWork)) (iff constraint68 $x311) (iff constraint69 (= gtINDEX4 gtAGG__rtDWork)) (iff constraint70 $x315) (iff constraint71 (= gtINDEX6 gtAGG__rtDWork)) (iff constraint72 (= gtINDEX7 gtAGG__rtDWork)) (iff constraint73 (= gtINDEX8 gtAGG__rtDWork)) (iff constraint74 $x321) (iff constraint75 (= gtINDEX10 gtAGG__rtDWork)) (iff constraint76 $x325) (iff constraint77 (= gtINDEX12 gtAGG__rtDWork)) (iff constraint78 $x329) (iff constraint79 (= gtINDEX14 gtAGG__rtDWork)) (iff constraint80 $x333) (iff constraint81 (= gtINDEX16 gtAGG__rtDWork)) (iff constraint82 $x337) (iff constraint83 (= gtINDEX18 gtAGG__rtDWork)) (iff constraint84 $x341) (iff constraint85 (= gtINDEX20 gtAGG__rtDWork)) (iff constraint86 (= gtINDEX21 gtAGG__rtDWork)) (iff constraint87 $x346) (iff constraint88 (= gtINDEX23 gtAGG__rtDWork)) (iff constraint89 $x350) (iff constraint90 (= gtINDEX25 gtAGG__rtDWork)) (iff constraint91 $x354) (iff constraint92 (= gtINDEX27 gtAGG__rtDWork)) (iff constraint93 $x358) (iff constraint94 (= gtINDEX29 gtAGG__rtDWork)) (iff constraint95 (= gtINDEX30 gtAGG__rtDWork)) (iff constraint96 $x363) (iff constraint97 (= gtINDEX32 gtAGG__rtDWork)) (iff constraint98 $x367) (iff constraint99 (= gtINDEX34 gtAGG__rtDWork)) (iff constraint100 $x371) (iff constraint101 (= gtINDEX36 gtAGG__rtDWork)) (iff constraint102 (= gtINDEX37 gtAGG__rtDWork)) (iff constraint103 (= gtINDEX38 gtAGG__rtDWork)) (iff constraint104 (= gtINDEX39 gtAGG__rtDWork)) (iff constraint105 (= gtINDEX40 gtAGG__rtDWork)) (iff constraint106 (= gtINDEX41 gtAGG__rtDWork)) (iff constraint107 (= gtINDEX42 gtAGG__rtDWork)) (iff constraint108 $x381) (iff constraint109 (= gtINDEX44 gtAGG__rtDWork)) (iff constraint110 $x385) (iff constraint111 (= gtINDEX46 gtAGG__rtDWork)) (iff constraint112 $x389) (iff constraint113 (= gtINDEX48 gtAGG__rtDWork)) (iff constraint114 (= gtINDEX49 gtAGG__rtDWork)) (iff constraint115 (= gtINDEX50 gtAGG__rtDWork)) (iff constraint116 $x395) (iff constraint117 (= gtINDEX52 gtAGG__rtDWork)) (iff constraint118 $x399) (iff constraint119 (= gtINDEX54 gtAGG__rtDWork)) (iff constraint120 $x403) (iff constraint121 (= gtINDEX56 gtAGG__rtDWork)) (iff constraint122 $x407) (iff constraint123 (= gtINDEX58 gtAGG__rtDWork)) (iff constraint124 $x411) (iff constraint125 (= gtINDEX60 gtAGG__rtDWork)) (iff constraint126 $x415) (iff constraint127 (= gtINDEX62 gtAGG__rtDWork)) (iff constraint128 (= gtINDEX63 gtAGG__rtDWork)) (iff constraint129 $x420) (iff constraint130 (= gtINDEX65 gtAGG__rtDWork)) (iff constraint131 $x424) (iff constraint132 (= gtINDEX67 gtAGG__rtDWork)) (iff constraint133 $x428) (iff constraint134 (= gtINDEX69 gtAGG__rtDWork)) (iff constraint135 $x432) (iff constraint136 (= gtINDEX71 gtAGG__rtDWork)) (iff constraint137 (= gtINDEX72 gtAGG__rtDWork)) (iff constraint138 $x437) (iff constraint139 (= gtINDEX74 gtAGG__rtDWork)) (iff constraint140 $x441) (iff constraint141 (= gtINDEX76 gtAGG__rtDWork)) (iff constraint142 $x445) (iff constraint143 (= gtINDEX78 gtAGG__rtDWork)) (iff constraint144 (= gtINDEX79 gtAGG__rtDWork)) (iff constraint145 (= gtINDEX80 gtAGG__rtDWork)) (iff constraint146 (= gtINDEX81 gtAGG__rtDWork)) (iff constraint147 (= gtINDEX82 gtAGG__rtDWork)) (iff constraint148 $x453) (iff constraint149 (= gtINDEX84 gtAGG__rtDWork)) (iff constraint150 $x457) (iff constraint151 (= gtINDEX86 gtAGG__rtDWork)) (iff constraint152 $x461) (iff constraint153 (= gtINDEX88 gtAGG__rtDWork)) (iff constraint154 $x465)))
(and $x776 $x777))))))))))))))))))))))))))))))))))))))))))))))))))))))))))))))))))))))))))))))))))))))))))))))))))
)
